N = 25;
MinK = 7;
Capacity = 200;

Scale = 10;
DistanceRoundingMode = Floor;
X = array1d(0..N, [35, 41, 35, 55, 55, 15, 25, 20, 10, 55, 30, 20, 50, 30, 15, 30, 10, 5, 20, 15, 45, 45, 45, 55, 65, 65]);
Y = array1d(0..N, [35, 49, 17, 45, 20, 30, 30, 50, 43, 60, 60, 65, 35, 25, 10, 5, 20, 30, 40, 60, 65, 20, 10, 5, 35, 20]);

Demands = array1d(1..N, [10, 7, 13, 19, 26, 3, 5, 9, 16, 16, 12, 19, 23, 20, 8, 19, 2, 12, 17, 9, 11, 18, 29, 3, 6]);

ServiceTimes = array1d(1..N, [10, 10, 10, 10, 10, 10, 10, 10, 10, 10, 10, 10, 10, 10, 10, 10, 10, 10, 10, 10, 10, 10, 10, 10, 10]);

TimeWindows = array2d(1..2, 0..N, [|
    0,   0,   0,   0, 149,   0,  99,   0,  95,  97, 124, 67,   0, 159, 32, 61, 75, 157, 87, 76, 126,   0,  97, 68, 153, 172 |
  230, 204, 202, 197, 159, 199, 109, 198, 105, 107, 134, 77, 205, 169, 42, 71, 85, 167, 97, 86, 136, 201, 107, 78, 163, 182
|]);
